proyfinal/src/viki/013/andrea/andrea-localstore/experimentInOfficeAgust.take6/worker_4/584d1624-1315-4e0d-b34d-bba7e852afce.als.cnf.out
Reading from standard input... Use '--help' for help.
============================[ Problem Statistics ]=============================
|                                                                             |
|  Number of variables:         87638                                         |
|  Number of clauses:          161767                                         |
|  Parse time:                   0.04 s                                       |
|                                                                             |
============================[ Search Statistics ]==============================
| Conflicts |          ORIGINAL         |          LEARNT          | Progress |
|           |    Vars  Clauses Literals |    Limit  Clauses Lit/Cl |          |
===============================================================================
|       100 |   63702   110013   274754 |    40338      100      9 | 27.312 % |
|       250 |   63702   110013   274754 |    44371      250     19 | 27.312 % |
|       475 |   63702   110013   274754 |    48809      475     37 | 27.312 % |
|       812 |   63702   110013   274754 |    53690      812     54 | 27.312 % |
|      1318 |   63701   109969   274664 |    59059     1315     65 | 27.313 % |
|      2077 |   63701   109969   274664 |    64964     2074     60 | 27.313 % |
|      3216 |   63701   109969   274664 |    71461     3213     68 | 27.314 % |
|      4924 |   54515    82427   207213 |    78607     4763     68 | 37.795 % |
|      7486 |   54495    81961   206084 |    86468     6515     66 | 37.818 % |
|     11330 |   54457    81814   205734 |    95115    10355     78 | 37.861 % |
|     17096 |   54315    81431   204834 |   104626    16080     77 | 38.023 % |
===============================================================================
restarts              : 66
conflicts             : 19582          (6826 /sec)
decisions             : 73093          (0.00 % random) (25477 /sec)
propagations          : 30742728       (10715732 /sec)
conflict literals     : 1473996        (42.62 % deleted)
Memory used           : 41.93 MB
CPU time              : 2.86893 s

INDETERMINATE
